
Log started (V11.0.0) Wed May 14 19:26:42 2008

Tried aggregator 1 time.
Reduced MIP has 210 rows, 2001 columns, and 4010 nonzeros.
Presolve time =    0.02 sec.
Clique table members: 200.
MIP emphasis: balance optimality and feasibility.
MIP search method: dynamic search.
Parallel mode: none, using 1 thread.
Root relaxation solution time =    0.03 sec.

        Nodes                                         Cuts/
   Node  Left     Objective  IInf  Best Integer     Best Node    ItCnt     Gap

*     0+    0                         2783.0000      463.1490      224   83.36%
*     0+    0                          506.0000      463.1490      224    8.47%
      0     0      464.0000    22      506.0000      Fract: 7      251    8.30%
*     0+    0                          490.0000      464.0000      251    5.31%
      0     0      464.0000    21      490.0000     Covers: 1      262    5.31%
      0     0      464.0000    22      490.0000     Covers: 2      273    5.31%
*     0+    0                          486.0000      464.0000      273    4.53%
*     0+    0                          477.0000      464.0000      273    2.73%
*     0+    0                          476.0000      464.0000      273    2.52%
      0     2      464.0000    22      476.0000      464.0000      273    2.52%
*    30+   24                          475.0000      464.0000      768    2.32%
    100    66      466.0000    16      475.0000      464.0000     2888    2.32%
    200   120      468.1245    17      475.0000      464.0000     5623    2.32%
    300   173      467.0000    16      475.0000      464.0000     7789    2.32%
    400   229      470.0000    16      475.0000      464.0000     9749    2.32%
*   483+  190                          474.0000      472.0000    12820    0.42%
    500   197      472.0000    14      474.0000      472.0000    13065    0.42%
    600   221    infeasible            474.0000      472.0000    16027    0.42%
    700   213    infeasible            474.0000      472.0000    19677    0.42%
*   783+  142                          473.0000      472.0000    24527    0.21%
    800   124    infeasible            473.0000      472.0000    27507    0.21%
    900    24    infeasible            473.0000      472.0000    42501    0.21%

Cover cuts applied:  60
Mixed integer rounding cuts applied:  2
Zero-half cuts applied:  1
Gomory fractional cuts applied:  2

Solution pool: 9 solutions saved.

MIP - Integer optimal solution:  Objective = 4.7300000000e+002
Solution time =   10.03 sec.  Iterations = 46603  Nodes = 925


Incumbent solution
Variable Name           Solution Value
Cmax                        473.000000
X_1_10                        1.000000
X_2_10                        1.000000
X_3_9                         1.000000
X_4_10                        1.000000
X_5_10                        1.000000
X_6_9                         1.000000
X_7_10                        1.000000
X_8_1                         1.000000
X_9_1                         1.000000
X_10_3                        1.000000
X_11_5                        1.000000
X_12_2                        1.000000
X_13_1                        1.000000
X_14_10                       1.000000
X_15_10                       1.000000
X_16_6                        1.000000
X_17_2                        1.000000
X_18_1                        1.000000
X_19_9                        1.000000
X_20_2                        1.000000
X_21_7                        1.000000
X_22_9                        1.000000
X_23_9                        1.000000
X_24_10                       1.000000
X_25_10                       1.000000
X_26_1                        1.000000
X_27_10                       1.000000
X_28_1                        1.000000
X_29_10                       1.000000
X_30_10                       1.000000
X_31_7                        1.000000
X_32_4                        1.000000
X_33_4                        1.000000
X_34_10                       1.000000
X_35_1                        1.000000
X_36_9                        1.000000
X_37_10                       1.000000
X_38_1                        1.000000
X_39_10                       1.000000
X_40_5                        1.000000
X_41_1                        1.000000
X_42_7                        1.000000
X_43_10                       1.000000
X_44_1                        1.000000
X_45_9                        1.000000
X_46_6                        1.000000
X_47_10                       1.000000
X_48_3                        1.000000
X_49_10                       1.000000
X_50_4                        1.000000
X_51_8                        1.000000
X_52_2                        1.000000
X_53_10                       1.000000
X_54_10                       1.000000
X_55_10                       1.000000
X_56_2                        1.000000
X_57_10                       1.000000
X_58_1                        1.000000
X_59_7                        1.000000
X_60_9                        1.000000
X_61_7                        1.000000
X_62_1                        1.000000
X_63_1                        1.000000
X_64_10                       1.000000
X_65_4                        1.000000
X_66_3                        1.000000
X_67_1                        1.000000
X_68_3                        1.000000
X_69_3                        1.000000
X_70_1                        1.000000
X_71_10                       1.000000
X_72_5                        1.000000
X_73_1                        1.000000
X_74_10                       1.000000
X_75_1                        1.000000
X_76_10                       1.000000
X_77_8                        1.000000
X_78_10                       1.000000
X_79_1                        1.000000
X_80_10                       1.000000
X_81_10                       1.000000
X_82_7                        1.000000
X_83_1                        1.000000
X_84_4                        1.000000
X_85_10                       1.000000
X_86_1                        1.000000
X_87_10                       1.000000
X_88_10                       1.000000
X_89_4                        1.000000
X_90_4                        1.000000
X_91_6                        1.000000
X_92_1                        1.000000
X_93_9                        1.000000
X_94_4                        1.000000
X_95_8                        1.000000
X_96_7                        1.000000
X_97_5                        1.000000
X_98_1                        1.000000
X_99_5                        1.000000
X_100_7                       1.000000
X_101_1                       1.000000
X_102_4                       1.000000
X_103_4                       1.000000
X_104_10                      1.000000
X_105_1                       1.000000
X_106_1                       1.000000
X_107_1                       1.000000
X_108_4                       1.000000
X_109_1                       1.000000
X_110_10                      1.000000
X_111_2                       1.000000
X_112_10                      1.000000
X_113_5                       1.000000
X_114_2                       1.000000
X_115_4                       1.000000
X_116_9                       1.000000
X_117_1                       1.000000
X_118_5                       1.000000
X_119_10                      1.000000
X_120_9                       1.000000
X_121_5                       1.000000
X_122_10                      1.000000
X_123_1                       1.000000
X_124_1                       1.000000
X_125_1                       1.000000
X_126_10                      1.000000
X_127_5                       1.000000
X_128_9                       1.000000
X_129_9                       1.000000
X_130_10                      1.000000
X_131_1                       1.000000
X_132_10                      1.000000
X_133_2                       1.000000
X_134_5                       1.000000
X_135_5                       1.000000
X_136_6                       1.000000
X_137_10                      1.000000
X_138_10                      1.000000
X_139_1                       1.000000
X_140_1                       1.000000
X_141_1                       1.000000
X_142_10                      1.000000
X_143_9                       1.000000
X_144_1                       1.000000
X_145_10                      1.000000
X_146_1                       1.000000
X_147_6                       1.000000
X_148_10                      1.000000
X_149_10                      1.000000
X_150_5                       1.000000
X_151_10                      1.000000
X_152_2                       1.000000
X_153_5                       1.000000
X_154_10                      1.000000
X_155_9                       1.000000
X_156_10                      1.000000
X_157_1                       1.000000
X_158_1                       1.000000
X_159_4                       1.000000
X_160_10                      1.000000
X_161_10                      1.000000
X_162_1                       1.000000
X_163_10                      1.000000
X_164_10                      1.000000
X_165_10                      1.000000
X_166_1                       1.000000
X_167_5                       1.000000
X_168_4                       1.000000
X_169_1                       1.000000
X_170_1                       1.000000
X_171_9                       1.000000
X_172_1                       1.000000
X_173_9                       1.000000
X_174_2                       1.000000
X_175_1                       1.000000
X_176_10                      1.000000
X_177_4                       1.000000
X_178_1                       1.000000
X_179_8                       1.000000
X_180_1                       1.000000
X_181_4                       1.000000
X_182_2                       1.000000
X_183_6                       1.000000
X_184_1                       1.000000
X_185_10                      1.000000
X_186_8                       1.000000
X_187_4                       1.000000
X_188_1                       1.000000
X_189_7                       1.000000
X_190_10                      1.000000
X_191_10                      1.000000
X_192_10                      1.000000
X_193_1                       1.000000
X_194_6                       1.000000
X_195_1                       1.000000
X_196_1                       1.000000
X_197_1                       1.000000
X_198_10                      1.000000
X_199_10                      1.000000
X_200_1                       1.000000
All other variables in the range 1-2001 are 0.
